38 -26 -19 45 -15 24 -34 -19 0
38 -26 -19 -15 -40 -19 0
-24 -15 7 -19 0
-18 -15 -47 22 24 -19 0
-19 0
-24 -15 7 19 0
9 -38 2 36 19 0
9 41 -15 -8 -38 19 0
-26 -15 19 -40 -38 19 0
-26 8 11 -15 -40 19 0
-40 -15 11 -26 19 0
-26 16 49 -11 -40 24 -3 19 0
19 0
0
